
GUB cover cuts applied:  2
Cover cuts applied:  5
Implied bound cuts applied:  1
Mixed integer rounding cuts applied:  4
Zero-half cuts applied:  2
Gomory fractional cuts applied:  1

Root node processing (before b&c):
  Real time             =    0.06 sec. (49.15 ticks)
Parallel b&c, 4 threads:
  Real time             =    0.00 sec. (0.00 ticks)
  Sync time (average)   =    0.00 sec.
  Wait time (average)   =    0.00 sec.
                          ------------
Total (root+branch&cut) =    0.06 sec. (49.15 ticks)
Version identifier: 12.10.0.0 | 2019-11-26 | 843d4de
CPXPARAM_MIP_Interval                            10
CPXPARAM_MIP_Tolerances_AbsMIPGap                0.98999999999999999
Tried aggregator 2 times.
MIP Presolve eliminated 3501 rows and 1676 columns.
MIP Presolve added 4 rows and 0 columns.
MIP Presolve modified 134 coefficients.
Aggregator did 11 substitutions.
Reduced MIP has 1690 rows, 202 columns, and 3814 nonzeros.
Reduced MIP has 161 binaries, 41 generals, 0 SOSs, and 0 indicators.
Presolve time = 0.01 sec. (6.17 ticks)
Probing fixed 0 vars, tightened 9 bounds.
Probing time = 0.00 sec. (0.73 ticks)
Cover probing fixed 0 vars, tightened 30 bounds.
Tried aggregator 1 time.
Detecting symmetries...
MIP Presolve eliminated 1312 rows and 0 columns.
MIP Presolve modified 9 coefficients.
Reduced MIP has 378 rows, 202 columns, and 1190 nonzeros.
Reduced MIP has 161 binaries, 41 generals, 0 SOSs, and 0 indicators.
Presolve time = 0.00 sec. (1.39 ticks)
Probing fixed 0 vars, tightened 9 bounds.
Probing time = 0.00 sec. (0.24 ticks)
Cover probing fixed 0 vars, tightened 27 bounds.
Clique table members: 256.
MIP emphasis: balance optimality and feasibility.
MIP search method: dynamic search.
Parallel mode: deterministic, using up to 4 threads.
Root relaxation solution time = 0.00 sec. (1.52 ticks)

        Nodes                                         Cuts/
   Node  Left     Objective  IInf  Best Integer    Best Bound    ItCnt     Gap

      0     0       27.3333    66                     27.3333      170         
      0     0       27.3333    66                    Cuts: 31      283         
      0     0       27.3333    66                    Cuts: 76      418         
      0     0       27.3333    66                     Cuts: 8      494         
      0     0       27.3333    66                    Cuts: 20      586         
*     0+    0                           25.0000       27.3333             9.33%
Detecting symmetries...
      0     2       27.3333    55       25.0000       27.3333      586    9.33%
Elapsed time = 0.07 sec. (58.23 ticks, tree = 0.02 MB, solutions = 1)
     10     3       27.1667    43       25.0000       27.3333      872    9.33%
     20    16        cutoff             25.0000       27.3077     2111    9.23%
     30    20        cutoff             25.0000       27.2993     3213    9.20%
     40    28       26.6898   100       25.0000       27.2993     3812    9.20%
     50    31       26.6570   128       25.0000       27.2993     3996    9.20%
     60    32        cutoff             25.0000       27.2993     4553    9.20%
     70    42       26.5833    76       25.0000       27.2704     4841    9.08%
     80    50       26.7145    99       25.0000       27.1698     5684    8.68%
     90    46       26.3333    28       25.0000       27.1146     5415    8.46%
    100    54       26.1875    52       25.0000       27.1146     6514    8.46%
Elapsed time = 0.12 sec. (102.77 ticks, tree = 0.06 MB, solutions = 1)
    110    63       26.0000    50       25.0000       27.1146     6940    8.46%
*   117    43      integral     0       26.0000       27.1146     6561    4.29%
    120    52       26.9156    82       26.0000       27.1146     6808    4.29%
    130    23        cutoff             26.0000       27.0833     7433    4.17%
    140    68       26.0000    45       26.0000       27.0278     7133    3.95%
    150    58       26.7250    78       26.0000       27.0278     7031    3.95%
the number of Nodes = 155
